8	8
5	89	2	33	7	2	4	3	0	42	3	87	6	30	1	40
4	3	7	26	1	67	5	82	3	29	2	10	6	76	0	57
6	55	5	3	0	9	2	84	1	54	4	23	7	58	3	13
5	90	4	9	0	17	2	93	1	3	7	63	6	50	3	71
1	88	4	94	5	71	2	50	7	21	3	40	6	34	0	17
7	73	6	40	0	35	2	36	3	98	1	28	4	36	5	78
3	41	7	81	1	87	4	66	5	65	0	61	6	49	2	7
6	4	0	12	4	47	1	59	2	32	3	94	7	15	5	65
